\ENCODING=ISO-8859-1
\Problem name: 

Minimize
 obj: 0 X_0_0 + 31.7407624357072 X_0_1 + 61.0799222330874 X_0_2
      + 50.5323708131728 X_0_3 + 41.2352822228732 X_0_4
      + 20.0936855753244 X_0_5 + 37.1336410819085 X_0_6
      + 6.39413794033254 X_0_7 + 40.6654115926545 X_0_8 + 14.581635710715 X_0_9
      + 31.7407624357072 X_1_0 + 0 X_1_1 + 36.7819153933016 X_1_2 + 19.25 X_1_3
      + 24.0459913499111 X_1_4 + 31.7586681080929 X_1_5 + 48.342905374005 X_1_6
      + 37.6610488435997 X_1_7 + 19.0240085155574 X_1_8
      + 33.9522797467269 X_1_9 + 61.0799222330874 X_2_0
      + 36.7819153933016 X_2_1 + 0 X_2_2 + 24.710758790454 X_2_3
      + 20.6143445202606 X_2_4 + 48.1915936652857 X_2_5
      + 53.0611006293688 X_2_6 + 67.4529265488163 X_2_7
      + 20.4989999756086 X_2_8 + 54.4428654646318 X_2_9
      + 50.5323708131728 X_3_0 + 19.25 X_3_1 + 24.710758790454 X_3_2 + 0 X_3_3
      + 25.0907472985561 X_3_4 + 46.0340102532899 X_3_5
      + 58.8523610401486 X_3_6 + 56.6384966255285 X_3_7
      + 19.2886961715923 X_3_8 + 50.0646701776812 X_3_9
      + 41.2352822228732 X_4_0 + 24.0459913499111 X_4_1
      + 20.6143445202606 X_4_2 + 25.0907472985561 X_4_3 + 0 X_4_4
      + 27.6445094006025 X_4_5 + 35.3087241344119 X_4_6
      + 47.5225262375644 X_4_7 + 6.10450653206302 X_4_8
      + 33.8285678088801 X_4_9 + 20.0936855753244 X_5_0
      + 31.7586681080929 X_5_1 + 48.1915936652857 X_5_2
      + 46.0340102532899 X_5_3 + 27.6445094006025 X_5_4 + 0 X_5_5
      + 18.8969971159441 X_5_6 + 24.8766718031171 X_5_7 + 29.882290742177 X_5_8
      + 6.95385504594394 X_5_9 + 37.1336410819085 X_6_0 + 48.342905374005 X_6_1
      + 53.0611006293688 X_6_2 + 58.8523610401486 X_6_3
      + 35.3087241344119 X_6_4 + 18.8969971159441 X_6_5 + 0 X_6_6
      + 40.3002344906329 X_6_7 + 40.0426897198477 X_6_8
      + 22.5842865727479 X_6_9 + 6.39413794033254 X_7_0
      + 37.6610488435997 X_7_1 + 67.4529265488163 X_7_2
      + 56.6384966255285 X_7_3 + 47.5225262375644 X_7_4
      + 24.8766718031171 X_7_5 + 40.3002344906329 X_7_6 + 0 X_7_7
      + 47.0531412341408 X_7_8 + 18.503007863588 X_7_9 + 40.6654115926545 X_8_0
      + 19.0240085155574 X_8_1 + 20.4989999756086 X_8_2
      + 19.2886961715923 X_8_3 + 6.10450653206302 X_8_4 + 29.882290742177 X_8_5
      + 40.0426897198477 X_8_6 + 47.0531412341408 X_8_7 + 0 X_8_8
      + 35.3789909409525 X_8_9 + 14.581635710715 X_9_0 + 33.9522797467269 X_9_1
      + 54.4428654646318 X_9_2 + 50.0646701776812 X_9_3
      + 33.8285678088801 X_9_4 + 6.95385504594394 X_9_5
      + 22.5842865727479 X_9_6 + 18.503007863588 X_9_7 + 35.3789909409525 X_9_8
      + 0 X_9_9 + 0 U_0
Subject To
 c1:  X_1_0 + X_2_0 + X_3_0 + X_4_0 + X_5_0 + X_6_0 + X_7_0 + X_8_0 + X_9_0
       = 1
 c2:  X_0_1 + X_2_1 + X_3_1 + X_4_1 + X_5_1 + X_6_1 + X_7_1 + X_8_1 + X_9_1
       = 1
 c3:  X_0_2 + X_1_2 + X_3_2 + X_4_2 + X_5_2 + X_6_2 + X_7_2 + X_8_2 + X_9_2
       = 1
 c4:  X_0_3 + X_1_3 + X_2_3 + X_4_3 + X_5_3 + X_6_3 + X_7_3 + X_8_3 + X_9_3
       = 1
 c5:  X_0_4 + X_1_4 + X_2_4 + X_3_4 + X_5_4 + X_6_4 + X_7_4 + X_8_4 + X_9_4
       = 1
 c6:  X_0_5 + X_1_5 + X_2_5 + X_3_5 + X_4_5 + X_6_5 + X_7_5 + X_8_5 + X_9_5
       = 1
 c7:  X_0_6 + X_1_6 + X_2_6 + X_3_6 + X_4_6 + X_5_6 + X_7_6 + X_8_6 + X_9_6
       = 1
 c8:  X_0_7 + X_1_7 + X_2_7 + X_3_7 + X_4_7 + X_5_7 + X_6_7 + X_8_7 + X_9_7
       = 1
 c9:  X_0_8 + X_1_8 + X_2_8 + X_3_8 + X_4_8 + X_5_8 + X_6_8 + X_7_8 + X_9_8
       = 1
 c10: X_0_9 + X_1_9 + X_2_9 + X_3_9 + X_4_9 + X_5_9 + X_6_9 + X_7_9 + X_8_9
       = 1
 c11: X_0_1 + X_0_2 + X_0_3 + X_0_4 + X_0_5 + X_0_6 + X_0_7 + X_0_8 + X_0_9
       = 1
 c12: X_1_0 + X_1_2 + X_1_3 + X_1_4 + X_1_5 + X_1_6 + X_1_7 + X_1_8 + X_1_9
       = 1
 c13: X_2_0 + X_2_1 + X_2_3 + X_2_4 + X_2_5 + X_2_6 + X_2_7 + X_2_8 + X_2_9
       = 1
 c14: X_3_0 + X_3_1 + X_3_2 + X_3_4 + X_3_5 + X_3_6 + X_3_7 + X_3_8 + X_3_9
       = 1
 c15: X_4_0 + X_4_1 + X_4_2 + X_4_3 + X_4_5 + X_4_6 + X_4_7 + X_4_8 + X_4_9
       = 1
 c16: X_5_0 + X_5_1 + X_5_2 + X_5_3 + X_5_4 + X_5_6 + X_5_7 + X_5_8 + X_5_9
       = 1
 c17: X_6_0 + X_6_1 + X_6_2 + X_6_3 + X_6_4 + X_6_5 + X_6_7 + X_6_8 + X_6_9
       = 1
 c18: X_7_0 + X_7_1 + X_7_2 + X_7_3 + X_7_4 + X_7_5 + X_7_6 + X_7_8 + X_7_9
       = 1
 c19: X_8_0 + X_8_1 + X_8_2 + X_8_3 + X_8_4 + X_8_5 + X_8_6 + X_8_7 + X_8_9
       = 1
 c20: X_9_0 + X_9_1 + X_9_2 + X_9_3 + X_9_4 + X_9_5 + X_9_6 + X_9_7 + X_9_8
       = 1
 c21: 9 X_1_2 + U_1 - U_2 <= 8
 c22: 9 X_1_3 + U_1 - U_3 <= 8
 c23: 9 X_1_4 + U_1 - U_4 <= 8
 c24: 9 X_1_5 + U_1 - U_5 <= 8
 c25: 9 X_1_6 + U_1 - U_6 <= 8
 c26: 9 X_1_7 + U_1 - U_7 <= 8
 c27: 9 X_1_8 + U_1 - U_8 <= 8
 c28: 9 X_1_9 + U_1 - U_9 <= 8
 c29: 9 X_2_1 - U_1 + U_2 <= 8
 c30: 9 X_2_3 + U_2 - U_3 <= 8
 c31: 9 X_2_4 + U_2 - U_4 <= 8
 c32: 9 X_2_5 + U_2 - U_5 <= 8
 c33: 9 X_2_6 + U_2 - U_6 <= 8
 c34: 9 X_2_7 + U_2 - U_7 <= 8
 c35: 9 X_2_8 + U_2 - U_8 <= 8
 c36: 9 X_2_9 + U_2 - U_9 <= 8
 c37: 9 X_3_1 - U_1 + U_3 <= 8
 c38: 9 X_3_2 - U_2 + U_3 <= 8
 c39: 9 X_3_4 + U_3 - U_4 <= 8
 c40: 9 X_3_5 + U_3 - U_5 <= 8
 c41: 9 X_3_6 + U_3 - U_6 <= 8
 c42: 9 X_3_7 + U_3 - U_7 <= 8
 c43: 9 X_3_8 + U_3 - U_8 <= 8
 c44: 9 X_3_9 + U_3 - U_9 <= 8
 c45: 9 X_4_1 - U_1 + U_4 <= 8
 c46: 9 X_4_2 - U_2 + U_4 <= 8
 c47: 9 X_4_3 - U_3 + U_4 <= 8
 c48: 9 X_4_5 + U_4 - U_5 <= 8
 c49: 9 X_4_6 + U_4 - U_6 <= 8
 c50: 9 X_4_7 + U_4 - U_7 <= 8
 c51: 9 X_4_8 + U_4 - U_8 <= 8
 c52: 9 X_4_9 + U_4 - U_9 <= 8
 c53: 9 X_5_1 - U_1 + U_5 <= 8
 c54: 9 X_5_2 - U_2 + U_5 <= 8
 c55: 9 X_5_3 - U_3 + U_5 <= 8
 c56: 9 X_5_4 - U_4 + U_5 <= 8
 c57: 9 X_5_6 + U_5 - U_6 <= 8
 c58: 9 X_5_7 + U_5 - U_7 <= 8
 c59: 9 X_5_8 + U_5 - U_8 <= 8
 c60: 9 X_5_9 + U_5 - U_9 <= 8
 c61: 9 X_6_1 - U_1 + U_6 <= 8
 c62: 9 X_6_2 - U_2 + U_6 <= 8
 c63: 9 X_6_3 - U_3 + U_6 <= 8
 c64: 9 X_6_4 - U_4 + U_6 <= 8
 c65: 9 X_6_5 - U_5 + U_6 <= 8
 c66: 9 X_6_7 + U_6 - U_7 <= 8
 c67: 9 X_6_8 + U_6 - U_8 <= 8
 c68: 9 X_6_9 + U_6 - U_9 <= 8
 c69: 9 X_7_1 - U_1 + U_7 <= 8
 c70: 9 X_7_2 - U_2 + U_7 <= 8
 c71: 9 X_7_3 - U_3 + U_7 <= 8
 c72: 9 X_7_4 - U_4 + U_7 <= 8
 c73: 9 X_7_5 - U_5 + U_7 <= 8
 c74: 9 X_7_6 - U_6 + U_7 <= 8
 c75: 9 X_7_8 + U_7 - U_8 <= 8
 c76: 9 X_7_9 + U_7 - U_9 <= 8
 c77: 9 X_8_1 - U_1 + U_8 <= 8
 c78: 9 X_8_2 - U_2 + U_8 <= 8
 c79: 9 X_8_3 - U_3 + U_8 <= 8
 c80: 9 X_8_4 - U_4 + U_8 <= 8
 c81: 9 X_8_5 - U_5 + U_8 <= 8
 c82: 9 X_8_6 - U_6 + U_8 <= 8
 c83: 9 X_8_7 - U_7 + U_8 <= 8
 c84: 9 X_8_9 + U_8 - U_9 <= 8
 c85: 9 X_9_1 - U_1 + U_9 <= 8
 c86: 9 X_9_2 - U_2 + U_9 <= 8
 c87: 9 X_9_3 - U_3 + U_9 <= 8
 c88: 9 X_9_4 - U_4 + U_9 <= 8
 c89: 9 X_9_5 - U_5 + U_9 <= 8
 c90: 9 X_9_6 - U_6 + U_9 <= 8
 c91: 9 X_9_7 - U_7 + U_9 <= 8
 c92: 9 X_9_8 - U_8 + U_9 <= 8
Bounds
 0 <= X_0_0 <= 1
 0 <= X_0_1 <= 1
 0 <= X_0_2 <= 1
 0 <= X_0_3 <= 1
 0 <= X_0_4 <= 1
 0 <= X_0_5 <= 1
 0 <= X_0_6 <= 1
 0 <= X_0_7 <= 1
 0 <= X_0_8 <= 1
 0 <= X_0_9 <= 1
 0 <= X_1_0 <= 1
 0 <= X_1_1 <= 1
 0 <= X_1_2 <= 1
 0 <= X_1_3 <= 1
 0 <= X_1_4 <= 1
 0 <= X_1_5 <= 1
 0 <= X_1_6 <= 1
 0 <= X_1_7 <= 1
 0 <= X_1_8 <= 1
 0 <= X_1_9 <= 1
 0 <= X_2_0 <= 1
 0 <= X_2_1 <= 1
 0 <= X_2_2 <= 1
 0 <= X_2_3 <= 1
 0 <= X_2_4 <= 1
 0 <= X_2_5 <= 1
 0 <= X_2_6 <= 1
 0 <= X_2_7 <= 1
 0 <= X_2_8 <= 1
 0 <= X_2_9 <= 1
 0 <= X_3_0 <= 1
 0 <= X_3_1 <= 1
 0 <= X_3_2 <= 1
 0 <= X_3_3 <= 1
 0 <= X_3_4 <= 1
 0 <= X_3_5 <= 1
 0 <= X_3_6 <= 1
 0 <= X_3_7 <= 1
 0 <= X_3_8 <= 1
 0 <= X_3_9 <= 1
 0 <= X_4_0 <= 1
 0 <= X_4_1 <= 1
 0 <= X_4_2 <= 1
 0 <= X_4_3 <= 1
 0 <= X_4_4 <= 1
 0 <= X_4_5 <= 1
 0 <= X_4_6 <= 1
 0 <= X_4_7 <= 1
 0 <= X_4_8 <= 1
 0 <= X_4_9 <= 1
 0 <= X_5_0 <= 1
 0 <= X_5_1 <= 1
 0 <= X_5_2 <= 1
 0 <= X_5_3 <= 1
 0 <= X_5_4 <= 1
 0 <= X_5_5 <= 1
 0 <= X_5_6 <= 1
 0 <= X_5_7 <= 1
 0 <= X_5_8 <= 1
 0 <= X_5_9 <= 1
 0 <= X_6_0 <= 1
 0 <= X_6_1 <= 1
 0 <= X_6_2 <= 1
 0 <= X_6_3 <= 1
 0 <= X_6_4 <= 1
 0 <= X_6_5 <= 1
 0 <= X_6_6 <= 1
 0 <= X_6_7 <= 1
 0 <= X_6_8 <= 1
 0 <= X_6_9 <= 1
 0 <= X_7_0 <= 1
 0 <= X_7_1 <= 1
 0 <= X_7_2 <= 1
 0 <= X_7_3 <= 1
 0 <= X_7_4 <= 1
 0 <= X_7_5 <= 1
 0 <= X_7_6 <= 1
 0 <= X_7_7 <= 1
 0 <= X_7_8 <= 1
 0 <= X_7_9 <= 1
 0 <= X_8_0 <= 1
 0 <= X_8_1 <= 1
 0 <= X_8_2 <= 1
 0 <= X_8_3 <= 1
 0 <= X_8_4 <= 1
 0 <= X_8_5 <= 1
 0 <= X_8_6 <= 1
 0 <= X_8_7 <= 1
 0 <= X_8_8 <= 1
 0 <= X_8_9 <= 1
 0 <= X_9_0 <= 1
 0 <= X_9_1 <= 1
 0 <= X_9_2 <= 1
 0 <= X_9_3 <= 1
 0 <= X_9_4 <= 1
 0 <= X_9_5 <= 1
 0 <= X_9_6 <= 1
 0 <= X_9_7 <= 1
 0 <= X_9_8 <= 1
 0 <= X_9_9 <= 1
Generals
 X_0_0  X_0_1  X_0_2  X_0_3  X_0_4  X_0_5  X_0_6  X_0_7  X_0_8  X_0_9  X_1_0 
 X_1_1  X_1_2  X_1_3  X_1_4  X_1_5  X_1_6  X_1_7  X_1_8  X_1_9  X_2_0  X_2_1 
 X_2_2  X_2_3  X_2_4  X_2_5  X_2_6  X_2_7  X_2_8  X_2_9  X_3_0  X_3_1  X_3_2 
 X_3_3  X_3_4  X_3_5  X_3_6  X_3_7  X_3_8  X_3_9  X_4_0  X_4_1  X_4_2  X_4_3 
 X_4_4  X_4_5  X_4_6  X_4_7  X_4_8  X_4_9  X_5_0  X_5_1  X_5_2  X_5_3  X_5_4 
 X_5_5  X_5_6  X_5_7  X_5_8  X_5_9  X_6_0  X_6_1  X_6_2  X_6_3  X_6_4  X_6_5 
 X_6_6  X_6_7  X_6_8  X_6_9  X_7_0  X_7_1  X_7_2  X_7_3  X_7_4  X_7_5  X_7_6 
 X_7_7  X_7_8  X_7_9  X_8_0  X_8_1  X_8_2  X_8_3  X_8_4  X_8_5  X_8_6  X_8_7 
 X_8_8  X_8_9  X_9_0  X_9_1  X_9_2  X_9_3  X_9_4  X_9_5  X_9_6  X_9_7  X_9_8 
 X_9_9 
End
